NAME : XML100_3173_17
DIMENSION : 101
NB_CLUSTERS : 24
CLUSTERING_ALG : DBSCAN
CLUSTERING_PARAMS : eps(72), minSamples(3)
CLUSTERS
1 0
2 1 11 38 46 55 63 92
3 4 10 29 32 35 70
4 6 7 8 13 28 88 90 95
5 17 21 69 83 100
6 20 47 97
7 27 34 48 54
8 19 30 33 43 45 49 65 71 74 85 93
9 39 42 51 56 76
10 40 82 94 98
11 41 52 89
12 50 58 60 81 87
13 5 61 80 99
14 3 25 62
15 72 73 84
16 9 22 23 36 44 64 86
17 2 37 96
18 12 26
19 15 77
20 18 66 78
21 14 59 68 91
22 53 57 67 75
23 24 79
24 16 31
EOF